language ESSENCE' 1.0
letting shiftRequirements = [[4, 1, 11, 4], [4, 1, 11, 4], [4, 1, 2, 13], [4, 1, 2, 13], [1, 1, 2, 16], [15, 1, 1, 3], [15, 1, 1, 3]]
letting numberOfWeeks = 20
letting s_min = 2
letting s_max = 3
